WARNING: for repeatability, setting FPU to use double precision
============================[ Problem Statistics ]=============================
|                                                                             |
|  Number of variables:           100                                         |
|  Number of clauses:             449                                         |
|  Parse time:                   0.00 s                                       |
|  Eliminated clauses:           0.00 Mb                                      |
|  Simplification time:          0.00 s                                       |
|                                                                             |
============================[ Search Statistics ]==============================
| Conflicts |          ORIGINAL         |          LEARNT          | Progress |
|           |    Vars  Clauses Literals |    Limit  Clauses Lit/Cl |          |
===============================================================================
===============================================================================
restarts              : 1
conflicts             : 69             (42884 /sec)
decisions             : 92             (0.00 % random) (57178 /sec)
propagations          : 1509           (937850 /sec)
conflict literals     : 489            (11.73 % deleted)
Memory used           : 13.00 MB
CPU time              : 0.001609 s

SATISFIABLE
